
Log started (V11.0.0) Sat May 17 19:58:11 2008

Tried aggregator 1 time.
Reduced MIP has 150 rows, 5001 columns, and 10050 nonzeros.
Presolve time =    0.05 sec.
Clique table members: 100.
MIP emphasis: balance optimality and feasibility.
MIP search method: dynamic search.
Parallel mode: none, using 1 thread.
Root relaxation solution time =    0.27 sec.

        Nodes                                         Cuts/
   Node  Left     Objective  IInf  Best Integer     Best Node    ItCnt     Gap

*     0+    0                       105130.0000     2003.9793      553   98.09%
*     0+    0                         2012.0000     2003.9793      553    0.40%
      0     0     2004.0207    90     2012.0000      Fract: 6      576    0.40%
      0     0     2004.1330    94     2012.0000    MIRcuts: 1      609    0.39%
      0     0     2004.1596    92     2012.0000       Cuts: 3      621    0.39%
      0     0     2004.2431    95     2012.0000       Cuts: 5      647    0.39%
      0     0     2004.3158   102     2012.0000       Cuts: 4      671    0.38%
      0     2     2005.0000    86     2012.0000     2004.3158      671    0.38%
    100    34     2010.0000    48     2012.0000     2005.0000     6172    0.35%
    200    46        cutoff           2012.0000     2005.0000    13116    0.35%
    300    64        cutoff           2012.0000     2005.0000    16819    0.35%
    400    92        cutoff           2012.0000     2005.0000    20120    0.35%
    500   154     2009.0000    62     2012.0000     2005.0000    21673    0.35%

Clique cuts applied:  3
Implied bound cuts applied:  6
Mixed integer rounding cuts applied:  3
Gomory fractional cuts applied:  1

Solution pool: 2 solutions saved.

MIP - Integer optimal solution:  Objective = 2.0120000000e+003
Solution time =    8.47 sec.  Iterations = 23688  Nodes = 531


Incumbent solution
Variable Name           Solution Value
Cmax                       2012.000000
X_1_48                        1.000000
X_2_44                        1.000000
X_3_47                        1.000000
X_4_12                        1.000000
X_5_41                        1.000000
X_6_23                        1.000000
X_7_22                        1.000000
X_8_13                        1.000000
X_9_38                        1.000000
X_10_4                        1.000000
X_11_27                       1.000000
X_12_1                        1.000000
X_13_25                       1.000000
X_14_30                       1.000000
X_15_24                       1.000000
X_16_28                       1.000000
X_17_21                       1.000000
X_18_12                       1.000000
X_19_33                       1.000000
X_20_13                       1.000000
X_21_35                       1.000000
X_22_35                       1.000000
X_23_16                       1.000000
X_24_9                        1.000000
X_25_19                       1.000000
X_26_33                       1.000000
X_27_44                       1.000000
X_28_23                       1.000000
X_29_31                       1.000000
X_30_40                       1.000000
X_31_16                       1.000000
X_32_28                       1.000000
X_33_5                        1.000000
X_34_50                       1.000000
X_35_34                       1.000000
X_36_20                       1.000000
X_37_17                       1.000000
X_38_32                       1.000000
X_39_29                       1.000000
X_40_9                        1.000000
X_41_20                       1.000000
X_42_15                       1.000000
X_43_10                       1.000000
X_44_24                       1.000000
X_45_42                       1.000000
X_46_11                       1.000000
X_47_43                       1.000000
X_48_30                       1.000000
X_49_4                        1.000000
X_50_25                       1.000000
X_51_40                       1.000000
X_52_18                       1.000000
X_53_39                       1.000000
X_54_49                       1.000000
X_55_46                       1.000000
X_56_18                       1.000000
X_57_45                       1.000000
X_58_36                       1.000000
X_59_3                        1.000000
X_60_10                       1.000000
X_61_45                       1.000000
X_62_7                        1.000000
X_63_29                       1.000000
X_64_26                       1.000000
X_65_43                       1.000000
X_66_14                       1.000000
X_67_22                       1.000000
X_68_50                       1.000000
X_69_17                       1.000000
X_70_36                       1.000000
X_71_48                       1.000000
X_72_2                        1.000000
X_73_47                       1.000000
X_74_27                       1.000000
X_75_42                       1.000000
X_76_37                       1.000000
X_77_6                        1.000000
X_78_41                       1.000000
X_79_3                        1.000000
X_80_21                       1.000000
X_81_19                       1.000000
X_82_38                       1.000000
X_83_31                       1.000000
X_84_15                       1.000000
X_85_7                        1.000000
X_86_26                       1.000000
X_87_1                        1.000000
X_88_8                        1.000000
X_89_14                       1.000000
X_90_6                        1.000000
X_91_32                       1.000000
X_92_49                       1.000000
X_93_46                       1.000000
X_94_37                       1.000000
X_95_5                        1.000000
X_96_34                       1.000000
X_97_8                        1.000000
X_98_11                       1.000000
X_99_2                        1.000000
X_100_39                      1.000000
All other variables in the range 1-5001 are 0.
